c numero: 51
c nombre: n-45-d-0.3
c densidad: 0.3
p edges 45 319
e 1 5
e 1 7
e 1 9
e 1 11
e 1 19
e 1 22
e 1 29
e 1 30
e 1 31
e 1 37
e 1 41
e 2 8
e 2 20
e 2 25
e 2 26
e 2 27
e 2 31
e 2 32
e 2 33
e 2 34
e 2 38
e 2 39
e 2 41
e 2 45
e 3 5
e 3 18
e 3 20
e 3 21
e 3 22
e 3 23
e 3 29
e 3 30
e 3 32
e 3 34
e 3 36
e 3 37
e 3 40
e 3 45
e 4 5
e 4 7
e 4 8
e 4 10
e 4 13
e 4 14
e 4 15
e 4 16
e 4 17
e 4 18
e 4 19
e 4 20
e 4 21
e 4 22
e 4 23
e 4 26
e 4 33
e 4 37
e 4 42
e 4 44
e 4 45
e 5 6
e 5 7
e 5 15
e 5 19
e 5 21
e 5 22
e 5 37
e 5 39
e 5 43
e 6 8
e 6 9
e 6 10
e 6 13
e 6 17
e 6 18
e 6 28
e 6 32
e 6 34
e 6 39
e 6 43
e 6 44
e 6 45
e 7 10
e 7 12
e 7 15
e 7 22
e 7 30
e 7 38
e 7 39
e 7 44
e 8 19
e 8 20
e 8 28
e 8 32
e 8 34
e 8 36
e 8 41
e 8 42
e 8 43
e 9 11
e 9 14
e 9 16
e 9 17
e 9 18
e 9 19
e 9 21
e 9 33
e 9 38
e 9 42
e 10 16
e 10 22
e 10 24
e 10 28
e 10 31
e 10 32
e 10 35
e 10 37
e 10 38
e 10 39
e 11 12
e 11 18
e 11 19
e 11 24
e 11 25
e 11 28
e 11 36
e 11 42
e 11 45
e 12 14
e 12 16
e 12 17
e 12 21
e 12 23
e 12 25
e 12 26
e 12 39
e 13 21
e 13 24
e 13 30
e 13 31
e 13 34
e 13 35
e 13 36
e 13 40
e 13 45
e 14 16
e 14 17
e 14 22
e 14 25
e 14 31
e 14 32
e 14 34
e 14 42
e 14 44
e 14 45
e 15 16
e 15 17
e 15 18
e 15 21
e 15 22
e 15 23
e 15 26
e 15 28
e 15 29
e 15 30
e 15 32
e 15 34
e 15 35
e 15 40
e 15 43
e 15 44
e 16 21
e 16 24
e 16 30
e 16 32
e 16 36
e 16 37
e 16 38
e 16 40
e 16 44
e 16 45
e 17 18
e 17 23
e 17 27
e 17 29
e 17 32
e 17 33
e 17 34
e 17 35
e 17 36
e 17 37
e 17 39
e 18 24
e 18 26
e 18 27
e 18 28
e 18 30
e 18 31
e 18 34
e 18 38
e 18 42
e 18 45
e 19 23
e 19 29
e 19 30
e 19 38
e 19 43
e 20 26
e 20 31
e 20 32
e 20 33
e 20 36
e 20 40
e 20 42
e 20 43
e 20 45
e 21 23
e 21 29
e 21 30
e 21 37
e 21 39
e 21 40
e 21 45
e 22 23
e 22 28
e 22 31
e 22 38
e 22 42
e 22 43
e 22 45
e 23 29
e 23 30
e 23 31
e 23 32
e 23 40
e 23 43
e 24 25
e 24 31
e 24 36
e 24 37
e 24 38
e 24 39
e 24 40
e 24 43
e 24 44
e 24 45
e 25 27
e 25 31
e 25 40
e 25 43
e 25 44
e 25 45
e 26 34
e 26 36
e 26 37
e 26 38
e 26 39
e 26 41
e 26 45
e 27 28
e 27 33
e 27 34
e 27 37
e 27 38
e 27 39
e 27 43
e 27 45
e 28 29
e 28 32
e 28 33
e 28 39
e 29 36
e 29 41
e 29 44
e 29 45
e 30 32
e 30 33
e 30 34
e 30 37
e 30 39
e 30 40
e 30 45
e 31 35
e 31 38
e 31 41
e 31 42
e 31 45
e 32 36
e 32 41
e 32 43
e 32 44
e 32 45
e 33 36
e 33 40
e 33 43
e 33 45
e 34 42
e 34 43
e 34 45
e 35 40
e 35 42
e 35 45
e 36 40
e 37 41
e 37 43
e 38 39
e 38 42
e 38 45
e 39 41
e 39 42
e 40 42
e 40 43
e 40 44
e 40 45
e 41 42
e 41 43
e 41 44
e 42 43
e 42 44
e 43 45
